c description: Random 3-CNF over 15 variables and 30 clauses
c generator: CNFgen (0.9.0)
c copyright: (C) 2012-2020 Massimo Lauria <massimo.lauria@uniroma1.it>
c url: https://massimolauria.net/cnfgen
c
p cnf 15 30
7 -11 15 0
1 -10 13 0
11 -12 13 0
1 -7 8 0
5 -10 -14 0
1 5 -10 0
9 -12 -15 0
-7 -9 10 0
3 -7 -8 0
-1 -7 10 0
-3 -11 13 0
5 10 -13 0
12 13 -14 0
-5 9 -15 0
5 11 -15 0
-2 -9 12 0
2 -3 -8 0
-1 4 15 0
-3 -4 -14 0
-1 -7 -13 0
2 4 7 0
2 6 9 0
5 -6 13 0
7 -11 -15 0
2 -5 -14 0
-1 5 11 0
-5 -9 -12 0
4 -8 15 0
-5 6 -8 0
6 14 15 0